65 13 18 56 46 26 4 21 
24 54 53 35 9 23 
17 31 71 30 6 34 2 
32 3 19 15 16 61 64 52 
43 67 63 40 29 28 51 66 47 
55 25 37 70 45 48 49 
41 10 72 58 60 68 
20 33 62 74 11 39 36 
42 7 27 44 38 12 22 69 75 
57 5 8 73 14 59 50 1 

